(set-option :print-success false)
(set-logic QF_UF)
(declare-sort x59 0)
(declare-sort x140 0)
(declare-fun x81 (x140 x140) x140)
(declare-fun x102 () x140)
(declare-fun x74 () x140)
(declare-fun x97 () x140)
(declare-fun x50 (x140 x140) x140)
(declare-fun x71 () x140)
(declare-fun x12 () x140)
(assert (and (and (and (and (or (or (= (x81 (x81 x71 x74) x74) x71) (or (= (x81 (x81 x12 x74) x74) x12) (or (= x74 (x81 (x81 x74 x74) x74)) (= (x81 (x81 x97 x74) x74) x97)))) (= x102 (x81 (x81 x102 x74) x74))) (or (or (or (= x12 (x81 (x81 x12 x97) x97)) (or (= (x81 (x81 x97 x97) x97) x97) (= x74 (x81 (x81 x74 x97) x97)))) (= (x81 (x81 x71 x97) x97) x71)) (= (x81 (x81 x102 x97) x97) x102))) (or (or (= x71 (x81 (x81 x71 x12) x12)) (or (= (x81 (x81 x12 x12) x12) x12) (or (= x97 (x81 (x81 x97 x12) x12)) (= x74 (x81 (x81 x74 x12) x12))))) (= (x81 (x81 x102 x12) x12) x102))) (or (= (x81 (x81 x102 x71) x71) x102) (or (or (= (x81 (x81 x12 x71) x71) x12) (or (= (x81 (x81 x97 x71) x71) x97) (= x74 (x81 (x81 x74 x71) x71)))) (= x71 (x81 (x81 x71 x71) x71))))) (or (or (or (= (x81 (x81 x12 x102) x102) x12) (or (= x97 (x81 (x81 x97 x102) x102)) (= x74 (x81 (x81 x74 x102) x102)))) (= x71 (x81 (x81 x71 x102) x102))) (= (x81 (x81 x102 x102) x102) x102))))
(assert (let ((x159 (x81 x71 x71)) (x27 (x81 x102 x102)) (x39 (x81 x12 x12)) (x144 (x81 x97 x97)) (x19 (x81 x74 x74))) (or (and (not (= x102 x27)) (and (not (= x159 x102)) (and (and (not (= x19 x102)) (not (= x102 x144))) (not (= x102 x39))))) (or (or (and (not (= x12 x27)) (and (and (and (not (= x12 x19)) (not (= x144 x12))) (not (= x12 x39))) (not (= x12 x159)))) (or (and (not (= x27 x97)) (and (and (not (= x39 x97)) (and (not (= x144 x97)) (not (= x97 x19)))) (not (= x159 x97)))) (and (and (and (not (= x74 x39)) (and (not (= x74 x19)) (not (= x144 x74)))) (not (= x159 x74))) (not (= x74 x27))))) (and (not (= x71 x27)) (and (not (= x159 x71)) (and (not (= x71 x39)) (and (not (= x19 x71)) (not (= x71 x144))))))))))
(assert (let ((x84 (x81 x12 x97)) (x128 (x81 x102 x74)) (x109 (x81 x97 x102)) (x37 (x81 x74 x12)) (x1 (x81 x74 x97)) (x94 (x81 x12 x74)) (x139 (x81 x74 x74)) (x10 (x81 x97 x12)) (x51 (x81 x102 x12)) (x15 (x81 x71 x74)) (x9 (x81 x12 x71)) (x92 (x81 x102 x71)) (x85 (x81 x71 x71)) (x33 (x81 x71 x12)) (x121 (x81 x12 x102)) (x68 (x81 x97 x71)) (x14 (x81 x74 x102)) (x96 (x81 x102 x102)) (x122 (x81 x97 x74)) (x105 (x81 x97 x97)) (x108 (x81 x71 x102)) (x101 (x81 x12 x12)) (x152 (x81 x74 x71)) (x41 (x81 x102 x97)) (x145 (x81 x71 x97))) (let ((x11 (= x85 x74)) (x141 (= x152 x102)) (x86 (= x102 x10)) (x7 (= x71 x84)) (x79 (= x74 x10)) (x69 (= x14 x71)) (x70 (= x97 x68)) (x100 (= x51 x71)) (x156 (= x71 x139)) (x127 (= x74 x9)) (x134 (= x9 x97)) (x103 (= x102 x109)) (x149 (= x97 x14)) (x93 (= x152 x71)) (x39 (= x37 x74)) (x25 (= x97 x37)) (x155 (= x97 x51)) (x90 (= x68 x74)) (x132 (= x71 x122)) (x114 (= x101 x12)) (x27 (= x74 x14)) (x91 (= x71 x128)) (x6 (= x105 x74)) (x113 (= x74 x128)) (x130 (= x102 x9)) (x48 (= x102 x139)) (x30 (= x71 x37)) (x143 (= x96 x74)) (x83 (= x41 x12)) (x20 (= x145 x12)) (x77 (= x12 x37)) (x62 (= x15 x71)) (x36 (= x102 x37)) (x131 (= x108 x74)) (x52 (= x85 x102)) (x89 (= x121 x102)) (x82 (= x12 x10)) (x148 (= x85 x97)) (x35 (= x97 x109)) (x126 (= x97 x33)) (x4 (= x109 x12)) (x64 (= x94 x74)) (x34 (= x74 x51)) (x57 (= x12 x139)) (x88 (= x71 x68)) (x46 (= x15 x74)) (x21 (= x102 x128)) (x147 (= x101 x97)) (x26 (= x94 x97)) (x49 (= x74 x84)) (x80 (= x97 x105)) (x78 (= x71 x9)) (x133 (= x9 x12)) (x17 (= x108 x12)) (x120 (= x94 x12)) (x157 (= x97 x1)) (x151 (= x94 x71)) (x112 (= x12 x68)) (x76 (= x12 x152)) (x98 (= x108 x71)) (x110 (= x102 x41)) (x63 (= x12 x14)) (x154 (= x102 x15)) (x60 (= x121 x97)) (x29 (= x92 x74)) (x75 (= x51 x102)) (x123 (= x84 x102)) (x3 (= x41 x74)) (x19 (= x139 x74)) (x8 (= x152 x97)) (x58 (= x101 x74)) (x65 (= x84 x12)) (x142 (= x1 x12)) (x47 (= x12 x15)) (x159 (= x152 x74)) (x45 (= x102 x1)) (x135 (= x121 x74)) (x73 (= x12 x85)) (x43 (= x97 x145)) (x116 (= x121 x12)) (x153 (= x71 x92)) (x150 (= x97 x41)) (x66 (= x12 x51)) (x158 (= x94 x102)) (x23 (= x96 x71)) (x72 (= x41 x71)) (x24 (= x102 x14)) (x111 (= x102 x33)) (x32 (= x71 x101)) (x31 (= x101 x102)) (x13 (= x1 x71)) (x22 (= x74 x145)) (x44 (= x109 x74)) (x137 (= x33 x71)) (x106 (= x121 x71)) (x146 (= x96 x12)) (x38 (= x97 x96)) (x144 (= x74 x1)) (x53 (= x68 x102)) (x117 (= x97 x128)) (x107 (= x71 x105)) (x5 (= x122 x102)) (x136 (= x108 x97)) (x16 (= x97 x92)) (x125 (= x10 x71)) (x118 (= x122 x12)) (x42 (= x139 x97)) (x87 (= x10 x97)) (x28 (= x97 x15)) (x2 (= x71 x109)) (x55 (= x145 x71)) (x40 (= x84 x97)) (x56 (= x12 x105)) (x124 (= x12 x128)) (x129 (= x102 x145)) (x61 (= x74 x33)) (x67 (= x97 x122)) (x54 (= x85 x71)) (x18 (= x74 x122)) (x95 (= x102 x92)) (x104 (= x92 x12)) (x138 (= x12 x33)) (x99 (= x102 x105)) (x115 (= x102 x108)) (x119 (= x102 x96))) (or (and (and (and (or x95 (not x95)) (and (or (not x75) x75) (and (or (not x110) x110) (or x21 (not x21))))) (or (not x119) x119)) (and (and (or (not x115) x23) (and (and (and (or (not x129) x72) (or x91 (not x154))) (or x100 (not x111))) (or (not x52) x153))) (and (and (and (or (not x103) x38) (and (or (not x53) x16) (and (and (or x150 (not x99)) (or (not x5) x117)) (or (not x86) x155)))) (and (and (and (and (or x113 (not x48)) (or x3 (not x45))) (or x34 (not x36))) (or (not x141) x29)) (or (not x24) x143))) (and (or x146 (not x89)) (and (or (not x130) x104) (and (and (or (not x158) x124) (or (not x123) x83)) (or x66 (not x31)))))))) (or (or (and (and (and (and (or (not x66) x31) (and (or x123 (not x83)) (or (not x124) x158))) (or x130 (not x104))) (or x89 (not x146))) (and (and (or (not x17) x106) (and (or (not x73) x78) (and (and (or (not x47) x151) (or x7 (not x20))) (or (not x138) x32)))) (and (and (or x116 (not x116)) (and (or x133 (not x133)) (and (or x114 (not x114)) (and (or x65 (not x65)) (or (not x120) x120))))) (and (and (or x135 (not x63)) (and (and (or x58 (not x77)) (and (or (not x57) x64) (or x49 (not x142)))) (or (not x76) x127))) (and (and (or x134 (not x112)) (and (or x147 (not x82)) (and (or (not x118) x26) (or (not x56) x40)))) (or x60 (not x4))))))) (or (and (and (and (or (not x16) x53) (and (and (or (not x117) x5) (or (not x150) x99)) (or (not x155) x86))) (or x103 (not x38))) (and (and (and (and (or x125 (not x126)) (and (or x132 (not x28)) (or (not x43) x107))) (or (not x148) x88)) (or x2 (not x136))) (and (and (or (not x60) x4) (and (and (and (or (not x26) x118) (or (not x40) x56)) (or (not x147) x82)) (or (not x134) x112))) (and (and (or (not x149) x44) (and (and (or (not x25) x79) (and (or (not x157) x6) (or x18 (not x42)))) (or x90 (not x8)))) (and (or x35 (not x35)) (and (or (not x70) x70) (and (or x87 (not x87)) (and (or (not x80) x80) (or x67 (not x67)))))))))) (and (and (or (not x143) x24) (and (and (or (not x34) x36) (and (or x48 (not x113)) (or (not x3) x45))) (or (not x29) x141))) (and (and (or (not x131) x69) (and (or (not x11) x93) (and (or x30 (not x61)) (and (or x13 (not x22)) (or (not x46) x156))))) (and (and (and (or x149 (not x44)) (and (and (and (or (not x6) x157) (or (not x18) x42)) (or x25 (not x79))) (or x8 (not x90)))) (and (and (or (not x159) x159) (and (and (or x144 (not x144)) (or (not x19) x19)) (or x39 (not x39)))) (or (not x27) x27))) (and (and (and (or (not x58) x77) (and (or (not x64) x57) (or x142 (not x49)))) (or (not x127) x76)) (or x63 (not x135)))))))) (and (and (and (or (not x98) x98) (and (and (or x137 (not x137)) (and (or (not x55) x55) (or x62 (not x62)))) (or (not x54) x54))) (and (and (and (and (and (and (or (not x132) x28) (or x43 (not x107))) (or x126 (not x125))) (or (not x88) x148)) (or (not x2) x136)) (and (and (and (and (or (not x13) x22) (or (not x156) x46)) (or x61 (not x30))) (or x11 (not x93))) (or x131 (not x69)))) (and (and (or x73 (not x78)) (and (and (or (not x151) x47) (or x20 (not x7))) (or x138 (not x32)))) (or (not x106) x17)))) (and (or (not x23) x115) (and (and (and (or x154 (not x91)) (or (not x72) x129)) (or x111 (not x100))) (or (not x153) x52)))))))))
(assert (or (and (and (and (and (not (= x97 (x81 x102 (x81 x102 x97)))) (not (= x74 (x81 x102 (x81 x102 x74))))) (not (= (x81 x102 (x81 x102 x12)) x12))) (not (= (x81 x102 (x81 x102 x71)) x71))) (not (= x102 (x81 x102 (x81 x102 x102))))) (or (and (not (= (x81 x71 (x81 x71 x102)) x102)) (and (and (not (= x12 (x81 x71 (x81 x71 x12)))) (and (not (= (x81 x71 (x81 x71 x74)) x74)) (not (= (x81 x71 (x81 x71 x97)) x97)))) (not (= (x81 x71 (x81 x71 x71)) x71)))) (or (and (and (and (and (not (= x97 (x81 x12 (x81 x12 x97)))) (not (= (x81 x12 (x81 x12 x74)) x74))) (not (= x12 (x81 x12 (x81 x12 x12))))) (not (= (x81 x12 (x81 x12 x71)) x71))) (not (= x102 (x81 x12 (x81 x12 x102))))) (or (and (and (and (and (not (= x74 (x81 x97 (x81 x97 x74)))) (not (= (x81 x97 (x81 x97 x97)) x97))) (not (= (x81 x97 (x81 x97 x12)) x12))) (not (= x71 (x81 x97 (x81 x97 x71))))) (not (= x102 (x81 x97 (x81 x97 x102))))) (and (and (not (= (x81 x74 (x81 x74 x71)) x71)) (and (and (not (= (x81 x74 (x81 x74 x74)) x74)) (not (= x97 (x81 x74 (x81 x74 x97))))) (not (= x12 (x81 x74 (x81 x74 x12)))))) (not (= (x81 x74 (x81 x74 x102)) x102))))))))
(assert (let ((x33 (x81 x97 x97)) (x51 (x81 x71 x97)) (x127 (x81 x71 x12)) (x70 (x81 x74 x97)) (x87 (x81 x74 x74)) (x60 (x81 x102 x71)) (x94 (x81 x12 x74)) (x41 (x81 x97 x71)) (x76 (x81 x12 x71)) (x121 (x81 x102 x74)) (x63 (x81 x12 x102)) (x92 (x81 x97 x102)) (x135 (x81 x102 x12)) (x77 (x81 x12 x12)) (x22 (x81 x102 x102)) (x4 (x81 x71 x102)) (x35 (x81 x74 x12)) (x108 (x81 x97 x12)) (x112 (x81 x71 x71)) (x128 (x81 x12 x97)) (x84 (x81 x74 x71)) (x109 (x81 x97 x74)) (x96 (x81 x102 x97)) (x9 (x81 x74 x102)) (x101 (x81 x71 x74))) (let ((x27 (not (= x74 x94))) (x157 (not (= x74 x41))) (x52 (not (= x121 x102))) (x49 (not (= x97 x108))) (x15 (not (= x109 x97))) (x138 (not (= x12 x135))) (x144 (not (= x109 x74))) (x105 (not (= x74 x60))) (x6 (not (= x127 x74))) (x34 (not (= x84 x71))) (x85 (not (= x33 x97))) (x17 (not (= x12 x22))) (x155 (not (= x135 x71))) (x65 (not (= x97 x9))) (x122 (not (= x135 x74))) (x147 (not (= x76 x97))) (x118 (not (= x97 x101))) (x67 (not (= x63 x74))) (x107 (not (= x108 x12))) (x68 (not (= x97 x87))) (x7 (not (= x12 x9))) (x2 (not (= x12 x127))) (x48 (not (= x35 x71))) (x54 (not (= x33 x71))) (x75 (not (= x60 x102))) (x18 (not (= x51 x74))) (x134 (not (= x97 x112))) (x131 (not (= x94 x12))) (x43 (not (= x77 x12))) (x24 (not (= x127 x71))) (x158 (not (= x87 x102))) (x37 (not (= x108 x74))) (x19 (not (= x87 x74))) (x8 (not (= x74 x121))) (x88 (not (= x51 x12))) (x32 (not (= x12 x92))) (x78 (not (= x12 x63))) (x82 (not (= x97 x127))) (x61 (not (= x87 x12))) (x83 (not (= x33 x102))) (x93 (not (= x109 x12))) (x62 (not (= x87 x71))) (x42 (not (= x74 x84))) (x126 (not (= x84 x12))) (x150 (not (= x71 x96))) (x146 (not (= x101 x102))) (x152 (not (= x77 x74))) (x86 (not (= x71 x92))) (x114 (not (= x96 x97))) (x30 (not (= x22 x97))) (x11 (not (= x12 x70))) (x103 (not (= x4 x71))) (x153 (not (= x9 x102))) (x45 (not (= x108 x71))) (x10 (not (= x74 x22))) (x106 (not (= x4 x12))) (x66 (not (= x35 x102))) (x151 (not (= x12 x112))) (x56 (not (= x51 x97))) (x28 (not (= x12 x128))) (x120 (not (= x97 x121))) (x40 (not (= x97 x41))) (x113 (not (= x71 x128))) (x124 (not (= x102 x109))) (x47 (not (= x12 x121))) (x142 (not (= x128 x97))) (x149 (not (= x74 x96))) (x154 (not (= x84 x102))) (x79 (not (= x74 x112))) (x69 (not (= x12 x33))) (x23 (not (= x102 x92))) (x3 (not (= x71 x77))) (x104 (not (= x102 x108))) (x130 (not (= x128 x102))) (x91 (not (= x51 x102))) (x119 (not (= x102 x22))) (x123 (not (= x102 x70))) (x38 (not (= x71 x22))) (x139 (not (= x35 x74))) (x16 (not (= x71 x60))) (x36 (not (= x101 x71))) (x143 (not (= x71 x76))) (x115 (not (= x96 x102))) (x73 (not (= x60 x12))) (x31 (not (= x102 x94))) (x117 (not (= x121 x71))) (x156 (not (= x97 x63))) (x29 (not (= x41 x71))) (x110 (not (= x63 x102))) (x58 (not (= x97 x77))) (x137 (not (= x71 x70))) (x133 (not (= x97 x92))) (x90 (not (= x74 x9))) (x132 (not (= x35 x12))) (x20 (not (= x12 x96))) (x64 (not (= x35 x97))) (x26 (not (= x84 x97))) (x5 (not (= x112 x71))) (x21 (not (= x102 x135))) (x25 (not (= x76 x74))) (x46 (not (= x60 x97))) (x136 (not (= x12 x76))) (x57 (not (= x94 x97))) (x125 (not (= x12 x101))) (x72 (not (= x127 x102))) (x99 (not (= x9 x71))) (x14 (not (= x74 x101))) (x80 (not (= x74 x4))) (x141 (not (= x71 x51))) (x89 (not (= x102 x77))) (x116 (not (= x97 x135))) (x129 (not (= x41 x102))) (x44 (not (= x74 x92))) (x145 (not (= x97 x70))) (x148 (not (= x41 x12))) (x39 (not (= x74 x70))) (x53 (not (= x63 x71))) (x13 (not (= x97 x4))) (x1 (not (= x74 x128))) (x159 (not (= x74 x33))) (x100 (not (= x102 x112))) (x95 (not (= x4 x102))) (x98 (not (= x71 x94))) (x111 (not (= x76 x102))) (x55 (not (= x71 x109)))) (or (and (and (and (or x75 x95) (and (or x21 x110) (and (or x52 x153) (or x23 x115)))) (or x119 x119)) (and (and (and (and (or x111 x72) (and (and (or x31 x66) (or x130 x104)) (or x89 x89))) (or x21 x110)) (and (and (or x52 x153) (and (and (and (or x158 x158) (or x123 x124)) (or x31 x66)) (or x146 x154))) (and (or x23 x115) (and (or x129 x91) (and (and (or x124 x123) (or x83 x83)) (or x104 x130)))))) (and (or x75 x95) (and (or x100 x100) (and (and (or x129 x91) (or x154 x146)) (or x72 x111)))))) (or (or (or (and (and (and (or x80 x105) (and (and (or x6 x25) (and (or x18 x157) (or x42 x14))) (or x79 x79))) (and (and (and (or x90 x8) (and (and (and (or x19 x19) (or x144 x39)) (or x27 x139)) (or x14 x42))) (and (and (and (or x1 x37) (and (or x159 x159) (or x39 x144))) (or x157 x18)) (or x149 x44))) (and (and (or x6 x25) (and (and (or x1 x37) (or x27 x139)) (or x152 x152))) (or x67 x122)))) (and (or x10 x10) (and (and (or x67 x122) (and (or x8 x90) (or x149 x44))) (or x80 x105)))) (and (and (and (and (and (and (or x118 x26) (and (and (or x68 x68) (or x15 x145)) (or x64 x57))) (or x65 x120)) (and (and (and (and (or x85 x85) (or x145 x15)) (or x142 x49)) (or x40 x56)) (or x114 x133))) (and (or x116 x156) (and (and (or x58 x58) (and (or x57 x64) (or x142 x49))) (or x82 x147)))) (and (or x13 x46) (and (and (or x82 x147) (and (or x40 x56) (or x118 x26))) (or x134 x134)))) (and (or x30 x30) (and (and (or x116 x156) (and (or x114 x133) (or x120 x65))) (or x13 x46))))) (and (and (and (or x73 x106) (and (or x78 x138) (and (or x7 x47) (or x20 x32)))) (or x17 x17)) (and (and (and (or x78 x138) (and (and (and (or x107 x28) (or x131 x132)) (or x43 x43)) (or x136 x2))) (and (and (or x47 x7) (and (and (or x132 x131) (and (or x93 x11) (or x61 x61))) (or x126 x125))) (and (or x32 x20) (and (or x148 x88) (and (and (or x69 x69) (or x93 x11)) (or x107 x28)))))) (and (or x73 x106) (and (and (and (or x126 x125) (or x148 x88)) (or x2 x136)) (or x151 x151)))))) (and (and (and (or x16 x103) (and (or x5 x5) (and (or x143 x24) (and (or x29 x141) (or x34 x36))))) (and (and (and (and (or x141 x29) (and (and (or x55 x137) (or x54 x54)) (or x45 x113))) (or x86 x150)) (and (and (or x36 x34) (and (and (or x137 x55) (or x62 x62)) (or x98 x48))) (or x117 x99))) (and (or x155 x53) (and (or x24 x143) (and (or x3 x3) (and (or x48 x98) (or x113 x45))))))) (and (and (and (or x53 x155) (and (or x86 x150) (or x99 x117))) (or x103 x16)) (or x38 x38))))))))
(assert (let ((x159 (= x71 (x81 x71 x71))) (x19 (= (x81 x74 x74) x74)) (x27 (= (x81 x102 x102) x102)) (x144 (= x97 (x81 x97 x97))) (x39 (= x12 (x81 x12 x12)))) (and (and (or (not x27) x27) (and (or (not (= (x81 x102 x71) x102)) x159) (and (or x39 (not (= (x81 x102 x12) x102))) (and (or x19 (not (= x102 (x81 x102 x74)))) (or (not (= x102 (x81 x102 x97))) x144))))) (and (and (and (or x27 (not (= x12 (x81 x12 x102)))) (and (and (or (not x39) x39) (and (or x144 (not (= x12 (x81 x12 x97)))) (or (not (= x12 (x81 x12 x74))) x19))) (or (not (= x12 (x81 x12 x71))) x159))) (and (and (or x27 (not (= (x81 x97 x102) x97))) (and (and (and (or x144 (not x144)) (or x19 (not (= x97 (x81 x97 x74))))) (or x39 (not (= (x81 x97 x12) x97)))) (or (not (= (x81 x97 x71) x97)) x159))) (and (and (or (not (= x74 (x81 x74 x71))) x159) (and (or (not (= x74 (x81 x74 x12))) x39) (and (or x19 (not x19)) (or (not (= (x81 x74 x97) x74)) x144)))) (or x27 (not (= x74 (x81 x74 x102))))))) (and (and (and (or (not (= (x81 x71 x12) x71)) x39) (and (or x19 (not (= (x81 x71 x74) x71))) (or x144 (not (= (x81 x71 x97) x71))))) (or x159 (not x159))) (or (not (= x71 (x81 x71 x102))) x27))))))
(assert (or (= (x81 x102 x102) x102) (or (= (x81 x71 x71) x71) (or (= (x81 x12 x12) x12) (or (= x97 (x81 x97 x97)) (= (x81 x74 x74) x74))))))
(assert (let ((x18 (x81 x12 x97)) (x90 (x81 x71 x12)) (x37 (x81 x97 x12)) (x8 (x81 x71 x97)) (x44 (x81 x71 x102)) (x27 (x81 x74 x102)) (x14 (x81 x97 x102)) (x157 (x81 x12 x12)) (x122 (x81 x102 x74)) (x42 (x81 x12 x74)) (x159 (x81 x74 x71)) (x6 (x81 x12 x71)) (x149 (x81 x71 x71)) (x67 (x81 x102 x97)) (x79 (x81 x71 x74)) (x80 (x81 x102 x71)) (x25 (x81 x12 x102)) (x19 (x81 x74 x74)) (x139 (x81 x97 x74)) (x152 (x81 x97 x71)) (x105 (x81 x102 x12)) (x39 (x81 x74 x12)) (x1 (x81 x97 x97)) (x144 (x81 x74 x97)) (x10 (x81 x102 x102))) (and (and (and (and (and (and (and (and (or (or (or (= x19 x12) (or (= x19 x97) (= x19 x74))) (= x71 x19)) (= x19 x102)) (or (= x144 x102) (or (= x71 x144) (or (= x144 x12) (or (= x144 x74) (= x97 x144)))))) (or (or (or (= x39 x12) (or (= x39 x97) (= x74 x39))) (= x71 x39)) (= x102 x39))) (or (or (or (= x12 x159) (or (= x159 x74) (= x159 x97))) (= x159 x71)) (= x159 x102))) (or (= x27 x102) (or (or (= x12 x27) (or (= x97 x27) (= x74 x27))) (= x27 x71)))) (and (or (= x14 x102) (or (= x71 x14) (or (or (= x14 x97) (= x14 x74)) (= x12 x14)))) (and (and (or (or (= x71 x37) (or (= x12 x37) (or (= x37 x97) (= x74 x37)))) (= x102 x37)) (and (or (= x102 x1) (or (= x71 x1) (or (= x12 x1) (or (= x1 x74) (= x1 x97))))) (or (= x139 x102) (or (= x139 x71) (or (= x139 x12) (or (= x139 x74) (= x97 x139))))))) (or (or (= x71 x152) (or (= x12 x152) (or (= x97 x152) (= x74 x152)))) (= x152 x102))))) (and (or (or (or (= x12 x25) (or (= x74 x25) (= x25 x97))) (= x25 x71)) (= x102 x25)) (and (or (= x6 x102) (or (= x71 x6) (or (= x6 x12) (or (= x97 x6) (= x74 x6))))) (and (or (or (= x71 x157) (or (or (= x157 x97) (= x74 x157)) (= x157 x12))) (= x157 x102)) (and (or (or (or (or (= x18 x97) (= x18 x74)) (= x12 x18)) (= x18 x71)) (= x102 x18)) (or (= x102 x42) (or (or (= x42 x12) (or (= x97 x42) (= x42 x74))) (= x71 x42)))))))) (and (and (and (and (or (or (= x71 x8) (or (= x12 x8) (or (= x8 x74) (= x97 x8)))) (= x8 x102)) (or (or (= x71 x79) (or (= x79 x12) (or (= x79 x74) (= x79 x97)))) (= x102 x79))) (or (= x90 x102) (or (= x90 x71) (or (or (= x90 x97) (= x74 x90)) (= x12 x90))))) (or (= x149 x102) (or (or (or (= x149 x97) (= x149 x74)) (= x12 x149)) (= x149 x71)))) (or (= x44 x102) (or (or (= x12 x44) (or (= x44 x74) (= x97 x44))) (= x71 x44))))) (and (and (and (or (or (or (= x12 x105) (or (= x97 x105) (= x74 x105))) (= x71 x105)) (= x102 x105)) (and (or (or (= x71 x122) (or (= x122 x12) (or (= x122 x74) (= x122 x97)))) (= x102 x122)) (or (or (= x71 x67) (or (or (= x67 x74) (= x97 x67)) (= x12 x67))) (= x102 x67)))) (or (= x80 x102) (or (= x71 x80) (or (= x80 x12) (or (= x97 x80) (= x74 x80)))))) (or (= x10 x102) (or (or (or (= x97 x10) (= x10 x74)) (= x10 x12)) (= x71 x10)))))))
(assert (and (and (and (= x74 (x81 x102 x102)) (= x97 (x81 x102 x71))) (= (x81 x102 x74) x12)) (= (x81 x12 x102) x71)))
(assert (let ((x67 (x81 x97 x102)) (x139 (x81 x74 x97)) (x37 (x81 x12 x97)) (x39 (x81 x12 x74)) (x27 (x81 x102 x74)) (x25 (x81 x102 x12)) (x42 (x81 x74 x12)) (x1 (x81 x97 x97)) (x144 (x81 x97 x74)) (x157 (x81 x12 x12)) (x149 (x81 x71 x71)) (x10 (x81 x102 x102)) (x105 (x81 x12 x102)) (x18 (x81 x97 x12)) (x44 (x81 x102 x71)) (x152 (x81 x71 x97)) (x8 (x81 x97 x71)) (x14 (x81 x102 x97)) (x159 (x81 x71 x74)) (x90 (x81 x12 x71)) (x80 (x81 x71 x102)) (x122 (x81 x74 x102)) (x79 (x81 x74 x71)) (x19 (x81 x74 x74)) (x6 (x81 x71 x12))) (and (and (and (not (= x10 x44)) (and (and (and (and (and (not (= x25 x14)) (and (not (= x10 x27)) (and (and (not (= x25 x27)) (not (= x14 x27))) (not (= x27 x44))))) (not (= x44 x14))) (not (= x14 x10))) (not (= x25 x44))) (not (= x10 x25)))) (and (and (and (and (and (not (= x152 x80)) (and (and (and (not (= x159 x80)) (and (and (not (= x159 x152)) (not (= x159 x6))) (not (= x149 x159)))) (not (= x6 x152))) (not (= x152 x149)))) (not (= x149 x6))) (not (= x6 x80))) (not (= x80 x149))) (and (and (and (and (not (= x18 x67)) (and (and (not (= x67 x1)) (and (not (= x1 x8)) (and (and (and (and (not (= x18 x144)) (not (= x1 x144))) (not (= x144 x8))) (not (= x67 x144))) (not (= x18 x1))))) (not (= x8 x18)))) (not (= x8 x67))) (and (not (= x79 x122)) (and (not (= x42 x122)) (and (not (= x42 x79)) (and (and (and (and (and (and (not (= x19 x139)) (not (= x42 x19))) (not (= x19 x79))) (not (= x122 x19))) (not (= x42 x139))) (not (= x139 x79))) (not (= x139 x122))))))) (and (and (not (= x105 x157)) (and (not (= x157 x90)) (and (not (= x37 x105)) (and (and (not (= x157 x37)) (and (and (and (not (= x39 x157)) (not (= x39 x37))) (not (= x90 x39))) (not (= x39 x105)))) (not (= x90 x37)))))) (not (= x105 x90)))))) (and (and (not (= x10 x80)) (and (not (= x10 x105)) (and (and (and (not (= x67 x80)) (and (and (not (= x122 x10)) (and (not (= x122 x80)) (and (not (= x122 x67)) (not (= x105 x122))))) (not (= x105 x67)))) (not (= x67 x10))) (not (= x80 x105))))) (and (and (not (= x44 x149)) (and (and (and (not (= x44 x8)) (and (and (not (= x8 x90)) (and (not (= x44 x79)) (and (not (= x149 x79)) (and (not (= x8 x79)) (not (= x79 x90)))))) (not (= x8 x149)))) (not (= x149 x90))) (not (= x90 x44)))) (and (and (and (and (and (and (not (= x18 x6)) (and (and (not (= x42 x25)) (and (not (= x42 x6)) (and (not (= x42 x18)) (not (= x157 x42))))) (not (= x18 x157)))) (not (= x25 x18))) (not (= x6 x157))) (not (= x157 x25))) (not (= x6 x25))) (and (and (not (= x152 x14)) (and (and (not (= x37 x152)) (and (not (= x1 x14)) (and (not (= x152 x1)) (and (not (= x1 x37)) (and (and (not (= x139 x152)) (and (not (= x1 x139)) (not (= x37 x139)))) (not (= x139 x14))))))) (not (= x37 x14)))) (and (not (= x27 x159)) (and (and (and (not (= x27 x144)) (and (and (not (= x144 x39)) (and (not (= x27 x19)) (and (and (not (= x19 x144)) (not (= x19 x39))) (not (= x19 x159))))) (not (= x144 x159)))) (not (= x39 x159))) (not (= x27 x39)))))))))))
(assert (and (and (and (or (= x12 (x81 (x81 x102 x12) x102)) (or (= x12 (x81 (x81 x71 x12) x71)) (or (= x12 (x81 (x81 x12 x12) x12)) (or (= (x81 (x81 x74 x12) x74) x12) (= (x81 (x81 x97 x12) x97) x12))))) (and (or (or (= x74 (x81 (x81 x71 x74) x71)) (or (= x74 (x81 (x81 x12 x74) x12)) (or (= (x81 (x81 x97 x74) x97) x74) (= x74 (x81 (x81 x74 x74) x74))))) (= x74 (x81 (x81 x102 x74) x102))) (or (or (or (or (= x97 (x81 (x81 x97 x97) x97)) (= (x81 (x81 x74 x97) x74) x97)) (= x97 (x81 (x81 x12 x97) x12))) (= (x81 (x81 x71 x97) x71) x97)) (= x97 (x81 (x81 x102 x97) x102))))) (or (or (= (x81 (x81 x71 x71) x71) x71) (or (or (= x71 (x81 (x81 x97 x71) x97)) (= x71 (x81 (x81 x74 x71) x74))) (= x71 (x81 (x81 x12 x71) x12)))) (= (x81 (x81 x102 x71) x102) x71))) (or (= (x81 (x81 x102 x102) x102) x102) (or (or (= x102 (x81 (x81 x12 x102) x12)) (or (= (x81 (x81 x74 x102) x74) x102) (= x102 (x81 (x81 x97 x102) x97)))) (= x102 (x81 (x81 x71 x102) x71))))))
(assert (let ((x67 (x81 x97 x102)) (x68 (x81 x102 x97)) (x107 (x81 x102 x71)) (x99 (x81 x102 x102)) (x27 (x81 x74 x71)) (x139 (x81 x74 x102)) (x92 (x81 x12 x12)) (x152 (x81 x12 x74)) (x39 (x81 x74 x97)) (x44 (x81 x97 x12)) (x144 (x81 x74 x74)) (x122 (x81 x97 x71)) (x159 (x81 x74 x12)) (x14 (x81 x71 x74)) (x93 (x81 x71 x71)) (x11 (x81 x71 x102)) (x77 (x81 x71 x12)) (x58 (x81 x102 x12)) (x57 (x81 x12 x102)) (x37 (x81 x97 x74)) (x42 (x81 x102 x74)) (x87 (x81 x71 x97)) (x149 (x81 x97 x97)) (x96 (x81 x12 x71)) (x10 (x81 x12 x97))) (let ((x101 (= x71 x149)) (x137 (= x102 x96)) (x147 (= x71 x92)) (x121 (= x102 x39)) (x79 (= x39 x74)) (x52 (= x42 x102)) (x83 (= x67 x12)) (x108 (= x74 x44)) (x76 (= x152 x12)) (x114 (= x87 x74)) (x129 (= x67 x71)) (x16 (= x97 x99)) (x141 (= x74 x11)) (x31 (= x57 x12)) (x22 (= x14 x97)) (x82 (= x71 x44)) (x138 (= x71 x96)) (x146 (= x71 x58)) (x54 (= x102 x93)) (x66 (= x12 x11)) (x28 (= x97 x93)) (x49 (= x97 x92)) (x55 (= x102 x122)) (x72 (= x71 x57)) (x142 (= x44 x97)) (x132 (= x96 x97)) (x117 (= x97 x107)) (x86 (= x97 x67)) (x148 (= x122 x12)) (x80 (= x149 x97)) (x116 (= x27 x74)) (x34 (= x57 x74)) (x35 (= x12 x149)) (x32 (= x122 x71)) (x47 (= x87 x71)) (x91 (= x139 x71)) (x134 (= x10 x102)) (x133 (= x74 x77)) (x85 (= x159 x74)) (x5 (= x97 x58)) (x46 (= x96 x74)) (x53 (= x11 x97)) (x19 (= x74 x144)) (x143 (= x68 x97)) (x95 (= x11 x102)) (x150 (= x139 x97)) (x29 (= x74 x99)) (x145 (= x74 x152)) (x56 (= x71 x10)) (x153 (= x68 x102)) (x60 (= x44 x102)) (x155 (= x97 x57)) (x63 (= x12 x159)) (x120 (= x92 x102)) (x126 (= x12 x77)) (x136 (= x93 x12)) (x78 (= x71 x93)) (x25 (= x37 x74)) (x20 (= x71 x27)) (x2 (= x96 x12)) (x8 (= x149 x74)) (x113 (= x58 x74)) (x135 (= x44 x12)) (x24 (= x42 x97)) (x33 (= x10 x74)) (x109 (= x39 x12)) (x13 (= x74 x93)) (x125 (= x87 x12)) (x18 (= x144 x12)) (x110 (= x67 x102)) (x4 (= x159 x102)) (x100 (= x71 x99)) (x157 (= x71 x144)) (x88 (= x27 x12)) (x98 (= x74 x42)) (x151 (= x14 x71)) (x38 (= x12 x68)) (x45 (= x107 x74)) (x105 (= x97 x39)) (x156 (= x74 x122)) (x30 (= x87 x97)) (x7 (= x71 x77)) (x70 (= x12 x37)) (x43 (= x12 x14)) (x89 (= x68 x71)) (x17 (= x77 x102)) (x6 (= x102 x144)) (x48 (= x74 x68)) (x73 (= x102 x14)) (x124 (= x107 x12)) (x75 (= x102 x57)) (x104 (= x71 x42)) (x51 (= x97 x10)) (x123 (= x12 x139)) (x41 (= x152 x97)) (x128 (= x92 x74)) (x21 (= x139 x102)) (x64 (= x159 x97)) (x26 (= x152 x71)) (x1 (= x97 x144)) (x36 (= x67 x74)) (x40 (= x159 x71)) (x9 (= x102 x37)) (x3 (= x74 x139)) (x118 (= x92 x12)) (x106 (= x102 x87)) (x61 (= x97 x77)) (x69 (= x27 x97)) (x154 (= x107 x71)) (x119 (= x102 x99)) (x23 (= x102 x107)) (x130 (= x99 x12)) (x94 (= x71 x37)) (x103 (= x12 x42)) (x158 (= x12 x58)) (x111 (= x71 x11)) (x90 (= x97 x37)) (x127 (= x10 x12)) (x15 (= x149 x102)) (x115 (= x102 x58)) (x112 (= x152 x102)) (x65 (= x74 x14)) (x62 (= x27 x102)) (x131 (= x122 x97)) (x84 (= x39 x71))) (and (and (and (and (and (and (and (or (or (or x26 (or x94 x157)) x151) x104) (or (or (or x40 (or x84 x157)) x20) x91)) (and (and (or (or x88 (or (or x109 x18) x63)) x123) (or (or x43 (or (or x18 x70) x76)) x103)) (and (and (or x150 (or x69 (or (or x1 x105) x64))) (or (or (or (or x1 x90) x41) x22) x24)) (and (or (or x65 (or x145 (or x25 x19))) x98) (or (or x116 (or (or x79 x19) x85)) x3))))) (and (or (or (or x4 (or x6 x121)) x62) x21) (or (or x73 (or (or x9 x6) x112)) x52))) (and (and (or (or x55 (or x60 (or x15 x9))) x110) (or (or (or (or x121 x15) x134) x106) x153)) (and (and (and (or (or x125 (or (or x35 x109) x127)) x38) (or (or (or (or x35 x70) x135) x148) x83)) (and (and (or (or (or x33 (or x79 x8)) x114) x48) (or (or (or x108 (or x25 x8)) x156) x36)) (and (or x86 (or x131 (or x142 (or x80 x90)))) (or x143 (or (or x51 (or x80 x105)) x30))))) (and (or x129 (or x32 (or (or x94 x101) x82))) (or x89 (or (or (or x101 x84) x56) x47)))))) (and (and (or (or (or x120 (or x60 x4)) x17) x115) (or (or x137 (or (or x134 x112) x120)) x75)) (and (and (and (and (or (or x61 (or (or x64 x142) x49)) x5) (or (or (or x49 (or x41 x51)) x132) x155)) (and (or x113 (or (or (or x85 x108) x128) x133)) (or (or (or (or x33 x145) x128) x46) x34))) (and (or x31 (or (or (or x127 x76) x118) x2)) (or (or x126 (or (or x63 x135) x118)) x158))) (and (or (or (or (or x40 x82) x147) x7) x146) (or (or (or x147 (or x26 x56)) x138) x72))))) (and (and (or (or (or x17 (or x106 x73)) x54) x95) (or x23 (or x54 (or (or x62 x55) x137)))) (and (and (and (or x66 (or x136 (or x126 (or x125 x43)))) (or (or (or x2 (or x88 x148)) x136) x124)) (and (and (or x53 (or x28 (or (or x22 x30) x61))) (or (or x28 (or x132 (or x131 x69))) x117)) (and (or x141 (or x13 (or x133 (or x65 x114)))) (or x45 (or (or x46 (or x116 x156)) x13))))) (and (or (or (or x7 (or x47 x151)) x78) x111) (or x154 (or x78 (or x138 (or x20 x32)))))))) (and (and (or x119 (or (or (or x110 x21) x75) x95)) (or x119 (or x23 (or (or x52 x153) x115)))) (and (and (or (or (or (or x104 x89) x146) x154) x100) (or x100 (or x111 (or (or x91 x129) x72)))) (and (and (or x130 (or (or (or x83 x123) x31) x66)) (or (or (or (or x38 x103) x158) x124) x130)) (and (and (or x29 (or (or (or x3 x36) x34) x141)) (or x29 (or (or x113 (or x48 x98)) x45))) (and (or (or (or (or x86 x150) x155) x53) x16) (or (or x117 (or x5 (or x24 x143))) x16))))))))))
(assert (not (and (and (and (= (x81 x102 x12) x102) (and (= (x81 x102 x97) x71) (and (= (x81 x102 x74) x12) (and (and (= (x81 x71 x71) x71) (and (= x74 (x81 x71 x12)) (and (and (= (x81 x71 x74) x102) (and (= (x81 x12 x102) x71) (and (and (and (and (and (= (x81 x97 x102) x12) (and (and (and (= (x81 x97 x97) x74) (and (and (= x102 (x81 x74 x102)) (and (= (x81 x74 x71) x12) (and (= (x81 x74 x12) x71) (and (= x97 (x81 x74 x97)) (= x74 (x81 x74 x74)))))) (= (x81 x97 x74) x71))) (= x97 (x81 x97 x12))) (= x102 (x81 x97 x71)))) (= x97 (x81 x12 x74))) (= x102 (x81 x12 x97))) (= x12 (x81 x12 x12))) (= (x81 x12 x71) x74)))) (= (x81 x71 x97) x12)))) (= (x81 x71 x102) x97))))) (= (x81 x102 x71) x97)) (= (x81 x102 x102) x74))))
(assert (and (and (and (and (= x74 (x81 (x81 x74 x74) x74)) (= (x81 (x81 x97 x97) x97) x97)) (= x12 (x81 (x81 x12 x12) x12))) (= (x81 (x81 x71 x71) x71) x71)) (= (x81 (x81 x102 x102) x102) x102)))
(assert (and (and (not (= x102 x12)) (and (and (not (= x102 x97)) (and (not (= x97 x71)) (and (and (and (and (not (= x12 x74)) (not (= x97 x74))) (not (= x74 x71))) (not (= x102 x74))) (not (= x97 x12))))) (not (= x71 x12)))) (not (= x71 x102))))
(check-sat)
(exit)
